c colouring generated by benchmark framework
p edge 1808 170826
v 1 25
v 2 26
v 3 5
v 4 17
v 5 2
v 6 46
v 7 33
v 8 3
v 9 0
v 10 38
v 11 13
v 12 14
v 13 18
v 14 19
v 15 6
v 16 29
v 17 20
v 18 29
v 19 39
v 20 35
v 21 38
v 22 23
v 23 24
v 24 10
v 25 4
v 26 7
v 27 10
v 28 14
v 29 36
v 30 40
v 31 3
v 32 22
v 33 3
v 34 18
v 35 5
v 36 20
v 37 26
v 38 9
v 39 6
v 40 15
v 41 0
v 42 39
v 43 2
v 44 3
v 45 50
v 46 26
v 47 10
v 48 46
v 49 2
v 50 11
v 51 1
v 52 46
v 53 6
v 54 44
v 55 4
v 56 24
v 57 36
v 58 17
v 59 9
v 60 6
v 61 41
v 62 1
v 63 8
v 64 18
v 65 0
v 66 55
v 67 29
v 68 10
v 69 14
v 70 26
v 71 18
v 72 5
v 73 44
v 74 43
v 75 15
v 76 18
v 77 22
v 78 44
v 79 26
v 80 0
v 81 40
v 82 23
v 83 26
v 84 13
v 85 42
v 86 33
v 87 29
v 88 9
v 89 7
v 90 29
v 91 39
v 92 28
v 93 36
v 94 11
v 95 20
v 96 7
v 97 12
v 98 10
v 99 7
v 100 6
v 101 1
v 102 40
v 103 22
v 104 33
v 105 36
v 106 7
v 107 2
v 108 11
v 109 5
v 110 3
v 111 12
v 112 40
v 113 13
v 114 46
v 115 54
v 116 2
v 117 5
v 118 10
v 119 25
v 120 26
v 121 26
v 122 35
v 123 48
v 124 14
v 125 14
v 126 22
v 127 1
v 128 7
v 129 12
v 130 2
v 131 28
v 132 24
v 133 32
v 134 19
v 135 10
v 136 27
v 137 16
v 138 6
v 139 36
v 140 1
v 141 1
v 142 41
v 143 27
v 144 14
v 145 47
v 146 57
v 147 10
v 148 6
v 149 14
v 150 20
v 151 3
v 152 19
v 153 23
v 154 7
v 155 4
v 156 16
v 157 15
v 158 35
v 159 28
v 160 17
v 161 31
v 162 39
v 163 14
v 164 45
v 165 37
v 166 17
v 167 27
v 168 37
v 169 1
v 170 37
v 171 7
v 172 13
v 173 29
v 174 16
v 175 15
v 176 12
v 177 39
v 178 35
v 179 42
v 180 36
v 181 38
v 182 48
v 183 21
v 184 12
v 185 21
v 186 12
v 187 21
v 188 9
v 189 7
v 190 14
v 191 37
v 192 57
v 193 42
v 194 22
v 195 45
v 196 53
v 197 5
v 198 18
v 199 19
v 200 45
v 201 32
v 202 41
v 203 32
v 204 5
v 205 10
v 206 10
v 207 49
v 208 14
v 209 2
v 210 1
v 211 24
v 212 28
v 213 0
v 214 25
v 215 48
v 216 7
v 217 26
v 218 28
v 219 58
v 220 23
v 221 58
v 222 26
v 223 23
v 224 11
v 225 30
v 226 9
v 227 32
v 228 6
v 229 0
v 230 6
v 231 13
v 232 27
v 233 11
v 234 30
v 235 24
v 236 25
v 237 39
v 238 31
v 239 41
v 240 24
v 241 17
v 242 7
v 243 31
v 244 44
v 245 33
v 246 14
v 247 18
v 248 37
v 249 0
v 250 25
v 251 2
v 252 3
v 253 17
v 254 1
v 255 0
v 256 15
v 257 6
v 258 53
v 259 8
v 260 28
v 261 36
v 262 8
v 263 42
v 264 12
v 265 6
v 266 34
v 267 26
v 268 37
v 269 14
v 270 16
v 271 1
v 272 25
v 273 4
v 274 12
v 275 18
v 276 15
v 277 4
v 278 27
v 279 11
v 280 48
v 281 27
v 282 57
v 283 31
v 284 21
v 285 4
v 286 27
v 287 15
v 288 9
v 289 46
v 290 39
v 291 20
v 292 40
v 293 14
v 294 34
v 295 40
v 296 54
v 297 22
v 298 4
v 299 17
v 300 35
v 301 6
v 302 12
v 303 12
v 304 16
v 305 32
v 306 41
v 307 21
v 308 27
v 309 52
v 310 20
v 311 5
v 312 41
v 313 16
v 314 33
v 315 10
v 316 22
v 317 54
v 318 30
v 319 2
v 320 25
v 321 36
v 322 5
v 323 45
v 324 7
v 325 8
v 326 15
v 327 28
v 328 19
v 329 13
v 330 28
v 331 29
v 332 31
v 333 56
v 334 14
v 335 24
v 336 53
v 337 40
v 338 4
v 339 44
v 340 29
v 341 46
v 342 26
v 343 14
v 344 27
v 345 9
v 346 6
v 347 36
v 348 21
v 349 38
v 350 5
v 351 17
v 352 24
v 353 48
v 354 15
v 355 21
v 356 13
v 357 14
v 358 25
v 359 24
v 360 9
v 361 34
v 362 25
v 363 30
v 364 31
v 365 23
v 366 39
v 367 6
v 368 21
v 369 5
v 370 21
v 371 57
v 372 17
v 373 1
v 374 29
v 375 47
v 376 27
v 377 8
v 378 37
v 379 17
v 380 16
v 381 38
v 382 7
v 383 1
v 384 12
v 385 21
v 386 29
v 387 24
v 388 53
v 389 21
v 390 19
v 391 28
v 392 1
v 393 38
v 394 8
v 395 9
v 396 24
v 397 22
v 398 12
v 399 26
v 400 2
v 401 21
v 402 3
v 403 12
v 404 33
v 405 44
v 406 29
v 407 27
v 408 51
v 409 19
v 410 11
v 411 6
v 412 35
v 413 41
v 414 25
v 415 35
v 416 47
v 417 43
v 418 31
v 419 28
v 420 21
v 421 1
v 422 8
v 423 29
v 424 34
v 425 44
v 426 53
v 427 6
v 428 2
v 429 26
v 430 16
v 431 49
v 432 30
v 433 58
v 434 32
v 435 11
v 436 21
v 437 40
v 438 16
v 439 28
v 440 26
v 441 37
v 442 29
v 443 7
v 444 22
v 445 11
v 446 5
v 447 20
v 448 22
v 449 4
v 450 17
v 451 2
v 452 38
v 453 33
v 454 30
v 455 55
v 456 16
v 457 38
v 458 14
v 459 48
v 460 19
v 461 7
v 462 38
v 463 32
v 464 38
v 465 40
v 466 40
v 467 28
v 468 0
v 469 23
v 470 13
v 471 46
v 472 22
v 473 8
v 474 16
v 475 53
v 476 5
v 477 14
v 478 39
v 479 31
v 480 54
v 481 25
v 482 34
v 483 8
v 484 12
v 485 10
v 486 29
v 487 23
v 488 5
v 489 30
v 490 0
v 491 2
v 492 50
v 493 17
v 494 29
v 495 9
v 496 27
v 497 3
v 498 0
v 499 49
v 500 23
v 501 16
v 502 37
v 503 16
v 504 10
v 505 24
v 506 17
v 507 12
v 508 23
v 509 55
v 510 6
v 511 46
v 512 15
v 513 25
v 514 17
v 515 9
v 516 23
v 517 18
v 518 18
v 519 27
v 520 14
v 521 3
v 522 19
v 523 2
v 524 15
v 525 25
v 526 1
v 527 33
v 528 2
v 529 36
v 530 4
v 531 1
v 532 49
v 533 22
v 534 38
v 535 12
v 536 28
v 537 28
v 538 15
v 539 14
v 540 18
v 541 15
v 542 43
v 543 49
v 544 12
v 545 35
v 546 14
v 547 15
v 548 29
v 549 45
v 550 17
v 551 52
v 552 55
v 553 2
v 554 13
v 555 6
v 556 13
v 557 37
v 558 21
v 559 3
v 560 23
v 561 36
v 562 0
v 563 5
v 564 24
v 565 18
v 566 37
v 567 39
v 568 50
v 569 3
v 570 26
v 571 37
v 572 30
v 573 18
v 574 0
v 575 4
v 576 24
v 577 13
v 578 50
v 579 12
v 580 26
v 581 23
v 582 22
v 583 37
v 584 31
v 585 6
v 586 0
v 587 51
v 588 41
v 589 13
v 590 38
v 591 6
v 592 32
v 593 11
v 594 3
v 595 5
v 596 30
v 597 2
v 598 3
v 599 35
v 600 49
v 601 9
v 602 55
v 603 20
v 604 4
v 605 22
v 606 13
v 607 45
v 608 9
v 609 32
v 610 52
v 611 35
v 612 18
v 613 10
v 614 44
v 615 27
v 616 54
v 617 29
v 618 32
v 619 1
v 620 13
v 621 32
v 622 4
v 623 25
v 624 25
v 625 13
v 626 8
v 627 11
v 628 44
v 629 38
v 630 22
v 631 29
v 632 24
v 633 52
v 634 26
v 635 9
v 636 27
v 637 16
v 638 27
v 639 2
v 640 25
v 641 11
v 642 12
v 643 17
v 644 50
v 645 43
v 646 6
v 647 3
v 648 20
v 649 57
v 650 41
v 651 25
v 652 18
v 653 46
v 654 51
v 655 1
v 656 22
v 657 3
v 658 35
v 659 2
v 660 10
v 661 39
v 662 34
v 663 8
v 664 4
v 665 36
v 666 51
v 667 4
v 668 39
v 669 12
v 670 42
v 671 19
v 672 49
v 673 1
v 674 44
v 675 17
v 676 6
v 677 3
v 678 19
v 679 5
v 680 6
v 681 5
v 682 31
v 683 20
v 684 10
v 685 22
v 686 25
v 687 36
v 688 23
v 689 2
v 690 43
v 691 14
v 692 5
v 693 47
v 694 54
v 695 44
v 696 41
v 697 23
v 698 20
v 699 57
v 700 48
v 701 36
v 702 14
v 703 12
v 704 18
v 705 28
v 706 42
v 707 34
v 708 1
v 709 9
v 710 11
v 711 40
v 712 30
v 713 21
v 714 35
v 715 10
v 716 13
v 717 32
v 718 37
v 719 43
v 720 26
v 721 14
v 722 17
v 723 39
v 724 40
v 725 4
v 726 52
v 727 58
v 728 16
v 729 31
v 730 41
v 731 5
v 732 24
v 733 12
v 734 1
v 735 15
v 736 11
v 737 49
v 738 16
v 739 5
v 740 16
v 741 43
v 742 38
v 743 10
v 744 13
v 745 21
v 746 2
v 747 14
v 748 37
v 749 10
v 750 24
v 751 47
v 752 15
v 753 50
v 754 32
v 755 56
v 756 25
v 757 7
v 758 17
v 759 12
v 760 10
v 761 21
v 762 28
v 763 27
v 764 56
v 765 36
v 766 3
v 767 23
v 768 18
v 769 29
v 770 12
v 771 9
v 772 11
v 773 20
v 774 58
v 775 52
v 776 31
v 777 27
v 778 15
v 779 31
v 780 0
v 781 34
v 782 3
v 783 0
v 784 24
v 785 1
v 786 35
v 787 0
v 788 48
v 789 49
v 790 12
v 791 7
v 792 32
v 793 13
v 794 20
v 795 42
v 796 12
v 797 47
v 798 26
v 799 9
v 800 52
v 801 20
v 802 11
v 803 52
v 804 34
v 805 16
v 806 5
v 807 15
v 808 40
v 809 25
v 810 8
v 811 55
v 812 8
v 813 8
v 814 5
v 815 23
v 816 2
v 817 32
v 818 43
v 819 0
v 820 34
v 821 25
v 822 4
v 823 43
v 824 44
v 825 26
v 826 15
v 827 13
v 828 45
v 829 21
v 830 36
v 831 16
v 832 4
v 833 15
v 834 4
v 835 6
v 836 35
v 837 2
v 838 30
v 839 8
v 840 0
v 841 37
v 842 43
v 843 32
v 844 17
v 845 18
v 846 53
v 847 7
v 848 3
v 849 35
v 850 44
v 851 25
v 852 0
v 853 20
v 854 32
v 855 53
v 856 45
v 857 48
v 858 15
v 859 19
v 860 14
v 861 0
v 862 5
v 863 45
v 864 2
v 865 32
v 866 12
v 867 0
v 868 4
v 869 1
v 870 47
v 871 43
v 872 1
v 873 10
v 874 36
v 875 22
v 876 16
v 877 35
v 878 3
v 879 33
v 880 57
v 881 16
v 882 8
v 883 12
v 884 34
v 885 15
v 886 8
v 887 11
v 888 47
v 889 23
v 890 50
v 891 39
v 892 10
v 893 8
v 894 42
v 895 4
v 896 42
v 897 50
v 898 26
v 899 14
v 900 53
v 901 3
v 902 18
v 903 31
v 904 39
v 905 30
v 906 55
v 907 3
v 908 34
v 909 20
v 910 38
v 911 56
v 912 27
v 913 10
v 914 48
v 915 8
v 916 38
v 917 23
v 918 58
v 919 7
v 920 39
v 921 49
v 922 7
v 923 48
v 924 17
v 925 41
v 926 18
v 927 42
v 928 31
v 929 18
v 930 8
v 931 9
v 932 9
v 933 35
v 934 46
v 935 0
v 936 25
v 937 19
v 938 56
v 939 16
v 940 51
v 941 11
v 942 18
v 943 56
v 944 49
v 945 11
v 946 19
v 947 32
v 948 4
v 949 33
v 950 32
v 951 1
v 952 14
v 953 22
v 954 7
v 955 39
v 956 32
v 957 16
v 958 0
v 959 4
v 960 24
v 961 32
v 962 6
v 963 27
v 964 10
v 965 41
v 966 8
v 967 40
v 968 40
v 969 9
v 970 25
v 971 14
v 972 33
v 973 32
v 974 17
v 975 26
v 976 19
v 977 22
v 978 5
v 979 11
v 980 52
v 981 29
v 982 41
v 983 31
v 984 13
v 985 12
v 986 7
v 987 8
v 988 22
v 989 21
v 990 22
v 991 0
v 992 36
v 993 29
v 994 25
v 995 10
v 996 8
v 997 26
v 998 40
v 999 16
v 1000 32
v 1001 29
v 1002 9
v 1003 25
v 1004 17
v 1005 16
v 1006 9
v 1007 34
v 1008 40
v 1009 33
v 1010 26
v 1011 8
v 1012 9
v 1013 3
v 1014 35
v 1015 5
v 1016 30
v 1017 22
v 1018 5
v 1019 46
v 1020 21
v 1021 8
v 1022 26
v 1023 4
v 1024 13
v 1025 48
v 1026 18
v 1027 29
v 1028 19
v 1029 16
v 1030 42
v 1031 11
v 1032 1
v 1033 0
v 1034 12
v 1035 5
v 1036 3
v 1037 10
v 1038 2
v 1039 45
v 1040 22
v 1041 20
v 1042 28
v 1043 27
v 1044 1
v 1045 51
v 1046 3
v 1047 47
v 1048 16
v 1049 3
v 1050 38
v 1051 50
v 1052 2
v 1053 39
v 1054 3
v 1055 23
v 1056 37
v 1057 15
v 1058 31
v 1059 22
v 1060 28
v 1061 17
v 1062 14
v 1063 8
v 1064 34
v 1065 7
v 1066 9
v 1067 9
v 1068 46
v 1069 18
v 1070 49
v 1071 3
v 1072 21
v 1073 25
v 1074 0
v 1075 28
v 1076 35
v 1077 18
v 1078 10
v 1079 56
v 1080 22
v 1081 15
v 1082 16
v 1083 4
v 1084 16
v 1085 15
v 1086 14
v 1087 0
v 1088 30
v 1089 38
v 1090 18
v 1091 54
v 1092 58
v 1093 20
v 1094 1
v 1095 3
v 1096 37
v 1097 0
v 1098 30
v 1099 8
v 1100 22
v 1101 2
v 1102 13
v 1103 53
v 1104 8
v 1105 40
v 1106 15
v 1107 51
v 1108 25
v 1109 1
v 1110 7
v 1111 20
v 1112 19
v 1113 4
v 1114 1
v 1115 29
v 1116 16
v 1117 23
v 1118 8
v 1119 19
v 1120 40
v 1121 41
v 1122 7
v 1123 17
v 1124 21
v 1125 13
v 1126 10
v 1127 41
v 1128 29
v 1129 9
v 1130 18
v 1131 3
v 1132 42
v 1133 23
v 1134 25
v 1135 8
v 1136 10
v 1137 6
v 1138 51
v 1139 13
v 1140 13
v 1141 20
v 1142 6
v 1143 20
v 1144 23
v 1145 14
v 1146 3
v 1147 30
v 1148 19
v 1149 19
v 1150 14
v 1151 6
v 1152 8
v 1153 2
v 1154 35
v 1155 0
v 1156 33
v 1157 7
v 1158 2
v 1159 5
v 1160 39
v 1161 7
v 1162 55
v 1163 19
v 1164 5
v 1165 23
v 1166 13
v 1167 24
v 1168 7
v 1169 35
v 1170 39
v 1171 10
v 1172 18
v 1173 52
v 1174 15
v 1175 2
v 1176 4
v 1177 9
v 1178 56
v 1179 13
v 1180 20
v 1181 14
v 1182 33
v 1183 31
v 1184 20
v 1185 9
v 1186 54
v 1187 38
v 1188 2
v 1189 55
v 1190 0
v 1191 48
v 1192 5
v 1193 51
v 1194 0
v 1195 53
v 1196 36
v 1197 37
v 1198 36
v 1199 15
v 1200 25
v 1201 27
v 1202 38
v 1203 19
v 1204 7
v 1205 43
v 1206 6
v 1207 39
v 1208 45
v 1209 51
v 1210 21
v 1211 6
v 1212 53
v 1213 30
v 1214 26
v 1215 8
v 1216 27
v 1217 24
v 1218 56
v 1219 55
v 1220 34
v 1221 1
v 1222 56
v 1223 9
v 1224 26
v 1225 5
v 1226 32
v 1227 18
v 1228 13
v 1229 7
v 1230 30
v 1231 28
v 1232 4
v 1233 4
v 1234 4
v 1235 3
v 1236 34
v 1237 19
v 1238 23
v 1239 33
v 1240 6
v 1241 9
v 1242 22
v 1243 1
v 1244 17
v 1245 55
v 1246 1
v 1247 31
v 1248 33
v 1249 24
v 1250 12
v 1251 17
v 1252 24
v 1253 16
v 1254 29
v 1255 16
v 1256 36
v 1257 26
v 1258 16
v 1259 17
v 1260 9
v 1261 9
v 1262 3
v 1263 7
v 1264 44
v 1265 5
v 1266 15
v 1267 17
v 1268 28
v 1269 20
v 1270 47
v 1271 37
v 1272 21
v 1273 38
v 1274 47
v 1275 22
v 1276 4
v 1277 27
v 1278 12
v 1279 14
v 1280 49
v 1281 34
v 1282 8
v 1283 31
v 1284 1
v 1285 9
v 1286 23
v 1287 2
v 1288 19
v 1289 8
v 1290 4
v 1291 0
v 1292 28
v 1293 5
v 1294 43
v 1295 18
v 1296 26
v 1297 15
v 1298 4
v 1299 2
v 1300 46
v 1301 3
v 1302 2
v 1303 17
v 1304 6
v 1305 52
v 1306 38
v 1307 27
v 1308 8
v 1309 18
v 1310 35
v 1311 2
v 1312 57
v 1313 31
v 1314 42
v 1315 52
v 1316 24
v 1317 49
v 1318 6
v 1319 24
v 1320 19
v 1321 12
v 1322 23
v 1323 50
v 1324 32
v 1325 21
v 1326 25
v 1327 25
v 1328 30
v 1329 35
v 1330 22
v 1331 9
v 1332 3
v 1333 20
v 1334 5
v 1335 25
v 1336 1
v 1337 11
v 1338 0
v 1339 8
v 1340 29
v 1341 19
v 1342 35
v 1343 7
v 1344 33
v 1345 1
v 1346 9
v 1347 29
v 1348 13
v 1349 51
v 1350 6
v 1351 10
v 1352 19
v 1353 20
v 1354 28
v 1355 15
v 1356 16
v 1357 34
v 1358 11
v 1359 27
v 1360 31
v 1361 16
v 1362 35
v 1363 19
v 1364 26
v 1365 53
v 1366 29
v 1367 10
v 1368 33
v 1369 39
v 1370 29
v 1371 2
v 1372 18
v 1373 6
v 1374 29
v 1375 40
v 1376 33
v 1377 7
v 1378 32
v 1379 28
v 1380 19
v 1381 0
v 1382 17
v 1383 10
v 1384 19
v 1385 27
v 1386 34
v 1387 11
v 1388 21
v 1389 49
v 1390 11
v 1391 43
v 1392 42
v 1393 26
v 1394 24
v 1395 2
v 1396 28
v 1397 14
v 1398 11
v 1399 1
v 1400 10
v 1401 14
v 1402 9
v 1403 33
v 1404 15
v 1405 33
v 1406 17
v 1407 42
v 1408 20
v 1409 12
v 1410 47
v 1411 31
v 1412 5
v 1413 35
v 1414 26
v 1415 21
v 1416 29
v 1417 29
v 1418 3
v 1419 14
v 1420 9
v 1421 34
v 1422 6
v 1423 11
v 1424 8
v 1425 31
v 1426 24
v 1427 34
v 1428 56
v 1429 35
v 1430 39
v 1431 31
v 1432 15
v 1433 24
v 1434 11
v 1435 12
v 1436 28
v 1437 32
v 1438 16
v 1439 7
v 1440 45
v 1441 9
v 1442 10
v 1443 4
v 1444 20
v 1445 19
v 1446 32
v 1447 55
v 1448 19
v 1449 20
v 1450 23
v 1451 39
v 1452 26
v 1453 28
v 1454 27
v 1455 9
v 1456 21
v 1457 34
v 1458 32
v 1459 55
v 1460 26
v 1461 4
v 1462 11
v 1463 16
v 1464 19
v 1465 35
v 1466 14
v 1467 14
v 1468 5
v 1469 11
v 1470 12
v 1471 2
v 1472 7
v 1473 3
v 1474 26
v 1475 37
v 1476 42
v 1477 27
v 1478 58
v 1479 11
v 1480 32
v 1481 28
v 1482 26
v 1483 52
v 1484 34
v 1485 11
v 1486 19
v 1487 21
v 1488 42
v 1489 21
v 1490 34
v 1491 52
v 1492 45
v 1493 13
v 1494 50
v 1495 39
v 1496 24
v 1497 15
v 1498 29
v 1499 17
v 1500 33
v 1501 11
v 1502 12
v 1503 7
v 1504 3
v 1505 13
v 1506 18
v 1507 24
v 1508 34
v 1509 19
v 1510 16
v 1511 24
v 1512 17
v 1513 7
v 1514 1
v 1515 12
v 1516 1
v 1517 41
v 1518 33
v 1519 7
v 1520 8
v 1521 18
v 1522 49
v 1523 14
v 1524 8
v 1525 43
v 1526 7
v 1527 20
v 1528 39
v 1529 6
v 1530 33
v 1531 30
v 1532 30
v 1533 30
v 1534 12
v 1535 3
v 1536 11
v 1537 22
v 1538 18
v 1539 24
v 1540 57
v 1541 36
v 1542 27
v 1543 15
v 1544 30
v 1545 10
v 1546 5
v 1547 25
v 1548 18
v 1549 7
v 1550 12
v 1551 4
v 1552 32
v 1553 43
v 1554 29
v 1555 37
v 1556 30
v 1557 28
v 1558 31
v 1559 19
v 1560 32
v 1561 10
v 1562 20
v 1563 30
v 1564 40
v 1565 5
v 1566 56
v 1567 22
v 1568 14
v 1569 27
v 1570 34
v 1571 5
v 1572 22
v 1573 55
v 1574 16
v 1575 17
v 1576 17
v 1577 2
v 1578 22
v 1579 22
v 1580 41
v 1581 0
v 1582 28
v 1583 29
v 1584 51
v 1585 11
v 1586 8
v 1587 20
v 1588 9
v 1589 19
v 1590 29
v 1591 40
v 1592 51
v 1593 10
v 1594 8
v 1595 7
v 1596 22
v 1597 40
v 1598 4
v 1599 13
v 1600 13
v 1601 20
v 1602 34
v 1603 25
v 1604 34
v 1605 1
v 1606 18
v 1607 1
v 1608 14
v 1609 46
v 1610 23
v 1611 25
v 1612 30
v 1613 24
v 1614 30
v 1615 27
v 1616 29
v 1617 38
v 1618 23
v 1619 56
v 1620 31
v 1621 30
v 1622 1
v 1623 28
v 1624 21
v 1625 15
v 1626 2
v 1627 18
v 1628 10
v 1629 54
v 1630 28
v 1631 32
v 1632 21
v 1633 3
v 1634 3
v 1635 19
v 1636 24
v 1637 58
v 1638 23
v 1639 37
v 1640 20
v 1641 0
v 1642 24
v 1643 9
v 1644 5
v 1645 21
v 1646 19
v 1647 0
v 1648 13
v 1649 54
v 1650 53
v 1651 11
v 1652 17
v 1653 31
v 1654 34
v 1655 23
v 1656 4
v 1657 33
v 1658 58
v 1659 46
v 1660 56
v 1661 0
v 1662 36
v 1663 44
v 1664 48
v 1665 19
v 1666 26
v 1667 21
v 1668 5
v 1669 46
v 1670 45
v 1671 12
v 1672 39
v 1673 42
v 1674 27
v 1675 12
v 1676 37
v 1677 57
v 1678 18
v 1679 42
v 1680 34
v 1681 33
v 1682 54
v 1683 7
v 1684 30
v 1685 33
v 1686 41
v 1687 0
v 1688 13
v 1689 2
v 1690 25
v 1691 46
v 1692 12
v 1693 41
v 1694 55
v 1695 15
v 1696 4
v 1697 13
v 1698 28
v 1699 19
v 1700 36
v 1701 23
v 1702 51
v 1703 31
v 1704 13
v 1705 5
v 1706 22
v 1707 10
v 1708 23
v 1709 28
v 1710 30
v 1711 11
v 1712 20
v 1713 44
v 1714 11
v 1715 14
v 1716 1
v 1717 24
v 1718 40
v 1719 22
v 1720 27
v 1721 8
v 1722 36
v 1723 45
v 1724 31
v 1725 58
v 1726 6
v 1727 24
v 1728 46
v 1729 50
v 1730 5
v 1731 28
v 1732 0
v 1733 20
v 1734 31
v 1735 34
v 1736 10
v 1737 42
v 1738 51
v 1739 49
v 1740 17
v 1741 40
v 1742 25
v 1743 5
v 1744 36
v 1745 23
v 1746 23
v 1747 38
v 1748 26
v 1749 12
v 1750 0
v 1751 38
v 1752 3
v 1753 10
v 1754 30
v 1755 0
v 1756 6
v 1757 30
v 1758 22
v 1759 13
v 1760 16
v 1761 39
v 1762 0
v 1763 17
v 1764 4
v 1765 11
v 1766 5
v 1767 8
v 1768 45
v 1769 4
v 1770 1
v 1771 20
v 1772 11
v 1773 55
v 1774 0
v 1775 1
v 1776 27
v 1777 1
v 1778 34
v 1779 47
v 1780 29
v 1781 39
v 1782 49
v 1783 10
v 1784 30
v 1785 51
v 1786 17
v 1787 9
v 1788 13
v 1789 32
v 1790 15
v 1791 31
v 1792 14
v 1793 32
v 1794 28
v 1795 26
v 1796 20
v 1797 11
v 1798 5
v 1799 16
v 1800 37
v 1801 17
v 1802 15
v 1803 4
v 1804 13
v 1805 6
v 1806 8
v 1807 47
v 1808 4
